1456188
0 23 54636
23 19 232009
19 16 102404
16 9 52694
9 22 54017
22 11 132796
11 7 61690
7 26 98591
26 2 4945
2 6 5029
6 20 171289
20 14 19591
14 5 10550
5 29 7944
29 1 6204
1 27 6275
27 28 52270
28 3 53285
3 8 8395
8 17 9870
17 24 7368
24 12 1644
12 4 6994
4 13 14272
13 25 12452
25 15 23200
15 10 17050
10 21 10310
21 18 8375
18 0 210039
